469,194
644,169
681,196
948,270
1166,563
1214,490
729,371
681,406
685,377
521,325
576,261
607,178
536,301
596,379
705,423
1166,563
999,724
871,596
705,423
621,406
611,309
755,178
996,177
681,676
729,371
839,188
948,270
948,542
871,596
789,619
649,613
311,526
439,230
469,194
